(set-logic QF_UF)
(declare-fun A0 () Bool)
(declare-fun A1 () Bool)
(declare-fun A2 () Bool)
(declare-fun A3 () Bool)
(declare-fun A4 () Bool)
(declare-fun A5 () Bool)
(declare-fun A6 () Bool)
(declare-fun A7 () Bool)
(declare-fun A9 () Bool)
(declare-fun A10 () Bool)
(declare-fun A11 () Bool)
(declare-fun A12 () Bool)
(declare-fun A13 () Bool)
(declare-fun A14 () Bool)
(declare-fun A15 () Bool)
(declare-fun A16 () Bool)
(declare-fun A17 () Bool)
(declare-fun A18 () Bool)
(declare-fun A19 () Bool)
(declare-fun A20 () Bool)
(declare-fun A21 () Bool)
(declare-fun A22 () Bool)
(declare-fun A23 () Bool)
(declare-fun A24 () Bool)
(declare-fun A25 () Bool)
(declare-fun A26 () Bool)
(declare-fun A27 () Bool)
(declare-fun A28 () Bool)
(declare-fun A29 () Bool)
(assert (let ((.def_0 (not A7))) (let ((.def_1 (or A5 .def_0))) (let ((.def_2 (not A27))) (let ((.def_3 (and .def_2 A18))) (let ((.def_4 (or .def_3 .def_1))) (let ((.def_5 (not .def_4))) (let ((.def_6 (not A25))) (let ((.def_7 (or A13 .def_6))) (let ((.def_8 (not .def_7))) (let ((.def_9 (and A10 A12))) (let ((.def_10 (not .def_9))) (let ((.def_11 (and .def_10 .def_8))) (let ((.def_12 (and .def_11 .def_5))) (let ((.def_13 (not A11))) (let ((.def_14 (and A28 .def_13))) (let ((.def_15 (not .def_14))) (let ((.def_16 (not A26))) (let ((.def_17 (and A27 .def_16))) (let ((.def_18 (not .def_17))) (let ((.def_19 (or .def_18 .def_15))) (let ((.def_20 (not .def_19))) (let ((.def_21 (or A1 A29))) (let ((.def_22 (not .def_21))) (let ((.def_23 (and A12 A29))) (let ((.def_24 (not .def_23))) (let ((.def_25 (or .def_24 .def_22))) (let ((.def_26 (not .def_25))) (let ((.def_27 (and .def_26 .def_20))) (let ((.def_28 (not .def_27))) (let ((.def_29 (or .def_28 .def_12))) (let ((.def_30 (not A6))) (let ((.def_31 (and A9 .def_30))) (let ((.def_32 (not A10))) (let ((.def_33 (or .def_32 A10))) (let ((.def_34 (not .def_33))) (let ((.def_35 (and .def_34 .def_31))) (let ((.def_36 (= A22 A6))) (let ((.def_37 (and A4 A7))) (let ((.def_38 (not .def_37))) (let ((.def_39 (or .def_38 .def_36))) (let ((.def_40 (or .def_39 .def_35))) (let ((.def_41 (not .def_40))) (let ((.def_42 (and A24 A20))) (let ((.def_43 (not .def_42))) (let ((.def_44 (not A3))) (let ((.def_45 (or .def_44 .def_13))) (let ((.def_46 (not .def_45))) (let ((.def_47 (or .def_46 .def_43))) (let ((.def_48 (not A16))) (let ((.def_49 (and A16 .def_48))) (let ((.def_50 (not .def_49))) (let ((.def_51 (not A20))) (let ((.def_52 (or .def_16 .def_51))) (let ((.def_53 (and .def_52 .def_50))) (let ((.def_54 (= .def_53 .def_47))) (let ((.def_55 (not .def_54))) (let ((.def_56 (and .def_55 .def_41))) (let ((.def_57 (not .def_56))) (let ((.def_58 (and .def_57 .def_29))) (let ((.def_59 (not .def_58))) (let ((.def_60 (and .def_44 A5))) (let ((.def_61 (not A1))) (let ((.def_62 (and .def_61 A21))) (let ((.def_63 (not .def_62))) (let ((.def_64 (and .def_63 .def_60))) (let ((.def_65 (not .def_64))) (let ((.def_66 (not A19))) (let ((.def_67 (and A17 .def_66))) (let ((.def_68 (not .def_67))) (let ((.def_69 (not A23))) (let ((.def_70 (or .def_69 A25))) (let ((.def_71 (not .def_70))) (let ((.def_72 (or .def_71 .def_68))) (let ((.def_73 (and .def_72 .def_65))) (let ((.def_74 (not .def_73))) (let ((.def_75 (or A7 A11))) (let ((.def_76 (or A28 A5))) (let ((.def_77 (and .def_76 .def_75))) (let ((.def_78 (or A14 .def_69))) (let ((.def_79 (not .def_78))) (let ((.def_80 (not A15))) (let ((.def_81 (= A2 .def_80))) (let ((.def_82 (= .def_81 .def_79))) (let ((.def_83 (and .def_82 .def_77))) (let ((.def_84 (or .def_83 .def_74))) (let ((.def_85 (not .def_84))) (let ((.def_86 (or A18 A13))) (let ((.def_87 (not .def_86))) (let ((.def_88 (not A5))) (let ((.def_89 (not A0))) (let ((.def_90 (or .def_89 .def_88))) (let ((.def_91 (and .def_90 .def_87))) (let ((.def_92 (not .def_91))) (let ((.def_93 (not A4))) (let ((.def_94 (or .def_93 A11))) (let ((.def_95 (not .def_94))) (let ((.def_96 (and A27 A19))) (let ((.def_97 (and .def_96 .def_95))) (let ((.def_98 (or .def_97 .def_92))) (let ((.def_99 (not .def_98))) (let ((.def_100 (or .def_93 .def_69))) (let ((.def_101 (and A2 .def_51))) (let ((.def_102 (not .def_101))) (let ((.def_103 (= .def_102 .def_100))) (let ((.def_104 (not .def_103))) (let ((.def_105 (= A6 A3))) (let ((.def_106 (not .def_105))) (let ((.def_107 (not A29))) (let ((.def_108 (and A17 .def_107))) (let ((.def_109 (not .def_108))) (let ((.def_110 (or .def_109 .def_106))) (let ((.def_111 (or .def_110 .def_104))) (let ((.def_112 (and .def_111 .def_99))) (let ((.def_113 (or .def_112 .def_85))) (let ((.def_114 (not .def_113))) (let ((.def_115 (and .def_114 .def_59))) .def_115)))))))))))))))))))))))))))))))))))))))))))))))))))))))))))))))))))))))))))))))))))))))))))))))))))))))))))))))))))))
(check-sat)
